SPARKNaCl/why3-z3/sparknacl-aes.adb_250_23_range_check_1.smt2
;; produced by z3_gnatprove.drv ;;
(set-info :smt-lib-version 2.5)
(set-info :source |VC generated by SPARK 2014|)
(set-info :category industrial)
(set-info :status unknown)
;;; generated by SMT-LIB2 driver
;;; SMT-LIB2 driver: bit-vectors, common part
;;; SMT-LIB2: integer arithmetic
(declare-const x (_ BitVec 32))

(declare-sort u32 0)

;; "to_rep"
(declare-fun to_rep (u32) (_ BitVec 32))

;; "of_rep"
(declare-fun of_rep ((_ BitVec 32)) u32)

;; "inversion_axiom"
(assert
  (forall ((x1 u32)) (! (= (of_rep (to_rep x1)) x1) :pattern ((to_rep x1)) )))

;; "range_axiom"
(assert true)

;; "coerce_axiom"
(assert
  (forall ((x1 (_ BitVec 32)))
    (! (= (to_rep (of_rep x1)) x1) :pattern ((to_rep (of_rep x1))) )))

(declare-sort map1 0)

;; "has_bounds"
(declare-fun has_bounds (map1
  Int
  Int) Bool)

;; "get"
(declare-fun get (map1
  Int) u32)

(declare-const column map1)

;; "ada___sparknacl__aes__sbox__forward_map__column__aggregate_def"
(declare-fun ada___sparknacl__aes__sbox__forward_map__column__aggregate_def ((_ BitVec 32)
  (_ BitVec 32)
  (_ BitVec 32)
  (_ BitVec 32)
  (_ BitVec 32)
  (_ BitVec 32)
  (_ BitVec 32)
  (_ BitVec 32)) map1)

;; "def_axiom"
(assert
  (forall ((temp___216 (_ BitVec 32)) (temp___217 (_ BitVec 32)) (temp___218 (_ BitVec 32)) (temp___219 (_ BitVec 32)) (temp___220 (_ BitVec 32)) (temp___221 (_ BitVec 32)) (temp___222 (_ BitVec 32)) (temp___223 (_ BitVec 32)))
    (let ((temp___224 (ada___sparknacl__aes__sbox__forward_map__column__aggregate_def
                        temp___216
                        temp___217
                        temp___218
                        temp___219
                        temp___220
                        temp___221
                        temp___222
                        temp___223)))
      (and
        (and
          (and
            (= (to_rep (get temp___224 0)) temp___216)
            (= (to_rep (get temp___224 1)) temp___217))
          (and
            (and
              (and
                (= (to_rep (get temp___224 2)) temp___218)
                (= (to_rep (get temp___224 3)) temp___219))
              (= (to_rep (get temp___224 4)) temp___220))
            (and
              (and
                (= (to_rep (get temp___224 5)) temp___221)
                (= (to_rep (get temp___224 6)) temp___222))
              (= (to_rep (get temp___224 7)) temp___223))))
        (=>
          (and
            (and (and (<= 0 0) (<= 0 7)) (and (<= 0 1) (<= 1 7)))
            (and
              (and
                (and (and (<= 0 2) (<= 2 7)) (and (<= 0 3) (<= 3 7)))
                (and (<= 0 4) (<= 4 7)))
              (and
                (and (and (<= 0 5) (<= 5 7)) (and (<= 0 6) (<= 6 7)))
                (and (<= 0 7) (<= 7 7)))))
          (has_bounds temp___224 0 7))))))

;; "Assume"
(assert true)

(declare-const temp___1793 map1)

;; "H"
(assert (= (to_rep (get temp___1793 0)) #x01010101))

;; "H"
(assert (= (to_rep (get temp___1793 1)) #x5F5F5F5F))

;; "H"
(assert (= (to_rep (get temp___1793 2)) #x7C7C7C7C))

;; "H"
(assert (= (to_rep (get temp___1793 3)) #x74747474))

;; "H"
(assert (= (to_rep (get temp___1793 4)) #x46464646))

;; "H"
(assert (= (to_rep (get temp___1793 5)) #xB0B0B0B0))

;; "H"
(assert (= (to_rep (get temp___1793 6)) #x4B4B4B4B))

;; "H"
(assert (= (to_rep (get temp___1793 7)) #xFCFCFCFC))

;; "H"
(assert (has_bounds temp___1793 0 7))

;; "H"
(assert
  (= temp___1793 (ada___sparknacl__aes__sbox__forward_map__column__aggregate_def
                   #x01010101
                   #x5F5F5F5F
                   #x7C7C7C7C
                   #x74747474
                   #x46464646
                   #xB0B0B0B0
                   #x4B4B4B4B
                   #xFCFCFCFC)))

;; "ada___sparknacl__aes__sbox__forward_map__column__aggregate_def'result'unused"
(define-fun ada___sparknacl__aes__sbox__forward_map__column__aggregate_defqtresultqtunused 
  () map1
  temp___1793)

;; "ada___sparknacl__aes__sbox__forward_map__column__assume'unused"
(define-fun ada___sparknacl__aes__sbox__forward_map__column__assumeqtunused 
  () map1
  temp___1793)

;; "Assume"
(assert (= temp___1793 column))

;; "Assume"
(assert (has_bounds column 0 7))

;; "o"
(define-fun o () (_ BitVec 32)
  (bvand x #x01010101))

;; "bw_and'result'unused"
(define-fun bw_andqtresultqtunused () (_ BitVec 32)
  o)

;; Goal "def'vc"
;; File "sparknacl-aes.adb", line 238, characters 0-0
(assert
  (not true))

(check-sat)
